letting n_nurses=25
letting n_days=7
letting n_shift_types=4
letting max_covers=8
letting t_covers=61
letting covers=[5,2,6,0,5,2,3,0,3,8,4,0,4,5,2,0,4,5,2,0,0,0,0,0,1,0,0,0]
letting prefes=[4,4,2,2,4,1,1,4,4,1,1,4,4,1,1,4,4,4,2,2,4,4,2,2,4,4,2,2,1,4,2,2,4,2,1,4,4,2,1,4,4,2,1,4,1,4,2,2,1,4,2,2,1,4,2,2,1,4,1,1,4,2,1,4,4,2,1,4,4,2,1,4,1,4,1,1,1,4,1,1,1,4,1,1,1,4,2,2,1,2,2,1,1,2,2,1,1,2,2,1,1,4,2,2,1,4,2,2,1,4,2,2,1,4,2,2,4,1,1,4,4,1,1,4,4,1,1,4,1,4,2,2,1,4,2,2,1,4,2,2,1,1,2,2,4,2,1,4,4,2,1,4,4,2,1,4,1,1,2,2,1,1,2,2,1,1,2,2,1,1,2,2,1,2,1,1,1,2,1,1,1,2,1,1,1,1,2,2,1,1,2,2,1,1,2,2,1,4,2,2,4,2,1,4,4,2,1,4,4,2,1,4,1,4,2,2,1,4,2,2,1,4,2,2,1,4,2,2,4,2,1,4,4,2,1,4,4,2,1,4,1,4,2,2,1,4,2,2,1,4,2,2,1,4,2,2,4,2,2,4,4,2,2,4,4,2,2,4,1,4,2,2,1,4,2,2,1,4,2,2,1,4,2,2,4,2,1,4,4,2,1,4,4,2,1,4,1,4,2,2,1,4,2,2,1,4,2,2,1,1,2,2,4,2,1,4,4,2,1,4,4,2,1,4,1,1,2,2,1,1,2,2,1,1,2,2,4,1,2,2,4,2,1,4,4,2,1,4,4,2,1,4,4,1,2,2,4,1,2,2,4,1,2,2,1,4,1,1,4,2,1,4,4,2,1,4,4,2,1,4,1,4,1,1,1,4,1,1,1,4,1,1,1,4,1,1,4,1,1,4,4,1,1,4,4,1,1,4,1,4,1,1,1,4,1,1,1,4,1,1,1,4,2,2,4,2,2,4,4,2,2,4,4,2,2,4,1,4,2,2,1,4,2,2,1,4,2,2,4,4,2,2,1,1,1,1,1,1,1,1,1,1,1,1,4,4,2,2,4,4,2,2,4,4,2,2,1,4,2,2,4,2,1,4,4,2,1,4,4,2,1,4,1,4,2,2,1,4,2,2,1,4,2,2,1,4,2,2,4,1,1,4,4,1,1,4,4,1,1,4,1,4,2,2,1,4,2,2,1,4,2,2,4,4,1,1,1,2,1,1,1,2,1,1,1,2,1,1,4,4,1,1,4,4,1,1,4,4,1,1,4,4,2,2,4,2,1,4,4,2,1,4,4,2,1,4,4,4,2,2,4,4,2,2,4,4,2,2,1,4,2,2,4,2,1,4,4,2,1,4,4,2,1,4,1,4,2,2,1,4,2,2,1,4,2,2,1,1,2,2,4,2,1,4,4,2,1,4,4,2,1,4,1,1,2,2,1,1,2,2,1,1,2,2,1,4,1,1,1,2,2,1,1,2,2,1,1,2,2,1,1,4,1,1,1,4,1,1,1,4,1,1,1,4,2,2,4,2,2,4,4,2,2,4,4,2,2,4,1,4,2,2,1,4,2,2,1,4,2,2]
letting ub =  228
